p cnf 118 293
a 26 24 22 20 18 16 14 12 10 8 6 4 2 48 47 45 107 1 44 0
d 94 48 1 0
d 113 107 44 0
d 3 2 0
d 5 4 0
d 7 6 0
d 9 8 0
d 11 10 0
d 13 12 0
d 15 14 0
d 17 16 0
d 19 18 0
d 21 20 0
d 23 22 0
d 25 24 0
d 27 26 0
d 28 26 0
d 29 26 0
d 30 24 26 0
d 31 22 24 26 0
d 32 20 22 24 26 0
d 33 18 20 22 24 26 0
d 34 16 18 20 22 24 26 0
d 35 14 16 18 20 22 24 26 0
d 36 12 14 16 18 20 22 24 26 0
d 37 10 12 14 16 18 20 22 24 26 0
d 38 8 10 12 14 16 18 20 22 24 26 0
d 39 6 8 10 12 14 16 18 20 22 24 26 0
d 40 4 6 8 10 12 14 16 18 20 22 24 26 0
d 41 2 4 6 8 10 12 14 16 18 20 22 24 26 0
d 42 1 2 4 6 8 10 12 14 16 18 20 22 24 26 0
d 43 1 2 4 6 8 10 12 14 16 18 20 22 24 26 0
d 46 45 0
d 49 48 0
d 50 48 2 4 6 8 10 12 14 16 18 20 22 24 26 0
d 51 47 48 2 4 6 8 10 12 14 16 18 20 22 24 26 0
d 52 45 47 48 2 4 6 8 10 12 14 16 18 20 22 24 26 0
d 53 44 45 47 48 2 4 6 8 10 12 14 16 18 20 22 24 26 0
d 54 44 45 47 48 2 4 6 8 10 12 14 16 18 20 22 24 26 0
d 55 1 2 4 6 8 10 12 14 16 18 20 22 24 26 44 45 47 48 0
d 56 26 0
d 57 26 0
d 58 24 26 0
d 59 24 26 0
d 60 26 24 0
d 61 22 24 26 0
d 62 22 24 26 0
d 63 26 24 22 0
d 64 20 22 24 26 0
d 65 20 22 24 26 0
d 66 26 24 22 20 0
d 67 18 20 22 24 26 0
d 68 18 20 22 24 26 0
d 69 26 24 22 20 18 0
d 70 16 18 20 22 24 26 0
d 71 16 18 20 22 24 26 0
d 72 26 24 22 20 18 16 0
d 73 14 16 18 20 22 24 26 0
d 74 14 16 18 20 22 24 26 0
d 75 26 24 22 20 18 16 14 0
d 76 12 14 16 18 20 22 24 26 0
d 77 12 14 16 18 20 22 24 26 0
d 78 26 24 22 20 18 16 14 12 0
d 79 10 12 14 16 18 20 22 24 26 0
d 80 10 12 14 16 18 20 22 24 26 0
d 81 26 24 22 20 18 16 14 12 10 0
d 82 8 10 12 14 16 18 20 22 24 26 0
d 83 8 10 12 14 16 18 20 22 24 26 0
d 84 26 24 22 20 18 16 14 12 10 8 0
d 85 6 8 10 12 14 16 18 20 22 24 26 0
d 86 6 8 10 12 14 16 18 20 22 24 26 0
d 87 26 24 22 20 18 16 14 12 10 8 6 0
d 88 4 6 8 10 12 14 16 18 20 22 24 26 0
d 89 4 6 8 10 12 14 16 18 20 22 24 26 0
d 90 26 24 22 20 18 16 14 12 10 8 6 4 0
d 91 2 4 6 8 10 12 14 16 18 20 22 24 26 0
d 92 2 4 6 8 10 12 14 16 18 20 22 24 26 0
d 93 26 24 22 20 18 16 14 12 10 8 6 4 2 0
d 95 48 2 4 6 8 10 12 14 16 18 20 22 24 26 0
d 96 48 1 2 4 6 8 10 12 14 16 18 20 22 24 26 0
d 97 26 24 22 20 18 16 14 12 10 8 6 4 2 48 1 0
d 98 47 48 2 4 6 8 10 12 14 16 18 20 22 24 26 0
d 99 47 48 2 4 6 8 10 12 14 16 18 20 22 24 26 0
d 100 26 24 22 20 18 16 14 12 10 8 6 4 2 48 1 47 0
d 101 45 47 48 2 4 6 8 10 12 14 16 18 20 22 24 26 0
d 102 47 0
d 103 47 48 2 4 6 8 10 12 14 16 18 20 22 24 26 0
d 104 45 47 48 2 4 6 8 10 12 14 16 18 20 22 24 26 0
d 105 45 47 48 2 4 6 8 10 12 14 16 18 20 22 24 26 0
d 106 26 24 22 20 18 16 14 12 10 8 6 4 2 48 1 47 45 0
d 108 107 45 47 48 2 4 6 8 10 12 14 16 18 20 22 24 26 0
d 109 45 47 48 2 4 6 8 10 12 14 16 18 20 22 24 26 0
d 110 107 45 47 48 2 4 6 8 10 12 14 16 18 20 22 24 26 0
d 111 107 45 47 48 2 4 6 8 10 12 14 16 18 20 22 24 26 0
d 112 26 24 22 20 18 16 14 12 10 8 6 4 2 48 1 47 45 107 0
d 114 107 0
d 115 107 45 47 48 2 4 6 8 10 12 14 16 18 20 22 24 26 0
d 116 107 44 45 47 48 2 4 6 8 10 12 14 16 18 20 22 24 26 0
d 117 26 24 22 20 18 16 14 12 10 8 6 4 2 48 1 47 45 107 44 0
d 118 1 2 4 6 8 10 12 14 16 18 20 22 24 26 44 45 47 48 107 0
3 2 0
-3 -2 0
5 4 0
-5 -4 0
7 6 0
-7 -6 0
9 8 0
-9 -8 0
11 10 0
-11 -10 0
13 12 0
-13 -12 0
15 14 0
-15 -14 0
17 16 0
-17 -16 0
19 18 0
-19 -18 0
21 20 0
-21 -20 0
23 22 0
-23 -22 0
25 24 0
-25 -24 0
27 26 0
-27 -26 0
28 -26 0
28 -27 0
-28 26 27 0
-29 27 0
-29 28 0
29 -27 -28 0
-30 25 0
-30 29 0
30 -25 -29 0
-31 23 0
-31 30 0
31 -23 -30 0
-32 21 0
-32 31 0
32 -21 -31 0
-33 19 0
-33 32 0
33 -19 -32 0
-34 17 0
-34 33 0
34 -17 -33 0
-35 15 0
-35 34 0
35 -15 -34 0
-36 13 0
-36 35 0
36 -13 -35 0
-37 11 0
-37 36 0
37 -11 -36 0
-38 9 0
-38 37 0
38 -9 -37 0
-39 7 0
-39 38 0
39 -7 -38 0
-40 5 0
-40 39 0
40 -5 -39 0
-41 3 0
-41 40 0
41 -3 -40 0
42 -1 -41 0
42 1 41 0
-42 -1 41 0
-42 1 -41 0
43 42 0
-43 -42 0
46 45 0
-46 -45 0
49 48 0
-49 -48 0
-50 49 0
-50 41 0
50 -49 -41 0
51 -47 0
51 -50 0
-51 47 50 0
-52 46 0
-52 51 0
52 -46 -51 0
53 -44 -52 0
53 44 52 0
-53 -44 52 0
-53 44 -52 0
54 53 0
-54 -53 0
55 -43 0
55 -54 0
-55 43 54 0
-56 26 0
-56 28 0
56 -26 -28 0
57 -56 -56 0
57 56 56 0
-57 -56 56 0
-57 56 -56 0
-58 24 0
-58 29 0
58 -24 -29 0
59 -58 -58 0
59 58 58 0
-59 -58 58 0
-59 58 -58 0
-60 57 0
-60 59 0
60 -57 -59 0
-61 22 0
-61 30 0
61 -22 -30 0
62 -61 -61 0
62 61 61 0
-62 -61 61 0
-62 61 -61 0
-63 60 0
-63 62 0
63 -60 -62 0
-64 20 0
-64 31 0
64 -20 -31 0
65 -64 -64 0
65 64 64 0
-65 -64 64 0
-65 64 -64 0
-66 63 0
-66 65 0
66 -63 -65 0
-67 18 0
-67 32 0
67 -18 -32 0
68 -67 -67 0
68 67 67 0
-68 -67 67 0
-68 67 -67 0
-69 66 0
-69 68 0
69 -66 -68 0
-70 16 0
-70 33 0
70 -16 -33 0
71 -70 -70 0
71 70 70 0
-71 -70 70 0
-71 70 -70 0
-72 69 0
-72 71 0
72 -69 -71 0
-73 14 0
-73 34 0
73 -14 -34 0
74 -73 -73 0
74 73 73 0
-74 -73 73 0
-74 73 -73 0
-75 72 0
-75 74 0
75 -72 -74 0
-76 12 0
-76 35 0
76 -12 -35 0
77 -76 -76 0
77 76 76 0
-77 -76 76 0
-77 76 -76 0
-78 75 0
-78 77 0
78 -75 -77 0
-79 10 0
-79 36 0
79 -10 -36 0
80 -79 -79 0
80 79 79 0
-80 -79 79 0
-80 79 -79 0
-81 78 0
-81 80 0
81 -78 -80 0
-82 8 0
-82 37 0
82 -8 -37 0
83 -82 -82 0
83 82 82 0
-83 -82 82 0
-83 82 -82 0
-84 81 0
-84 83 0
84 -81 -83 0
-85 6 0
-85 38 0
85 -6 -38 0
86 -85 -85 0
86 85 85 0
-86 -85 85 0
-86 85 -85 0
-87 84 0
-87 86 0
87 -84 -86 0
-88 4 0
-88 39 0
88 -4 -39 0
89 -88 -88 0
89 88 88 0
-89 -88 88 0
-89 88 -88 0
-90 87 0
-90 89 0
90 -87 -89 0
-91 2 0
-91 40 0
91 -2 -40 0
92 -91 -91 0
92 91 91 0
-92 -91 91 0
-92 91 -91 0
-93 90 0
-93 92 0
93 -90 -92 0
-95 48 0
-95 41 0
95 -48 -41 0
96 -94 -95 0
96 94 95 0
-96 -94 95 0
-96 94 -95 0
-97 93 0
-97 96 0
97 -93 -96 0
-98 47 0
-98 50 0
98 -47 -50 0
99 -98 -98 0
99 98 98 0
-99 -98 98 0
-99 98 -98 0
-100 97 0
-100 99 0
100 -97 -99 0
-101 45 0
-101 51 0
101 -45 -51 0
102 47 0
-102 -47 0
-103 102 0
-103 50 0
103 -102 -50 0
-104 45 0
-104 103 0
104 -45 -103 0
105 -101 -104 0
105 101 104 0
-105 -101 104 0
-105 101 -104 0
-106 100 0
-106 105 0
106 -100 -105 0
-108 107 0
-108 52 0
108 -107 -52 0
-109 46 0
-109 103 0
109 -46 -103 0
-110 107 0
-110 109 0
110 -107 -109 0
111 -108 -110 0
111 108 110 0
-111 -108 110 0
-111 108 -110 0
-112 106 0
-112 111 0
112 -106 -111 0
114 107 0
-114 -107 0
-115 114 0
-115 109 0
115 -114 -109 0
116 -113 -115 0
116 113 115 0
-116 -113 115 0
-116 113 -115 0
-117 112 0
-117 116 0
117 -112 -116 0
118 -55 0
118 -117 0
-118 55 117 0
118 0
